outputs/models/Extended_LCD_ILP_2_19_5_6.lp
\ Model Extended ILP
\ LP format - for model browsing. Use MPS format to capture full model detail.
\ Signature: 0x142853a3c4a70a8b
Maximize
  A[0] + A[1] + A[2] + A[3] + A[4] + A[5] + A[6] + A[7] + A[8] + A[9]
   + A[10] + A[11] + A[12] + A[13] + A[14]
Subject To
 R0: 9 A[0] + 7 A[1] + 5 A[2] + 3 A[3] + A[4] - A[5] - 3 A[6] - 5 A[7]
   - 7 A[8] - 9 A[9] - 11 A[10] - 13 A[11] - 15 A[12] - 17 A[13] - 19 A[14]
   >= -19
 R1: 31 A[0] + 15 A[1] + 3 A[2] - 5 A[3] - 9 A[4] - 9 A[5] - 5 A[6]
   + 3 A[7] + 15 A[8] + 31 A[9] + 51 A[10] + 75 A[11] + 103 A[12]
   + 135 A[13] + 171 A[14] >= -171
 R2: 39 A[0] - 7 A[1] - 25 A[2] - 23 A[3] - 9 A[4] + 9 A[5] + 23 A[6]
   + 25 A[7] + 7 A[8] - 39 A[9] - 121 A[10] - 247 A[11] - 425 A[12]
   - 663 A[13] - 969 A[14] >= -969
 R3: - 44 A[0] - 76 A[1] - 44 A[2] + 4 A[3] + 36 A[4] + 36 A[5] + 4 A[6]
   - 44 A[7] - 76 A[8] - 44 A[9] + 116 A[10] + 484 A[11] + 1156 A[12]
   + 2244 A[13] + 3876 A[14] >= -3876
 R4: - 204 A[0] - 84 A[1] + 36 A[2] + 76 A[3] + 36 A[4] - 36 A[5] - 76 A[6]
   - 36 A[7] + 84 A[8] + 204 A[9] + 132 A[10] - 468 A[11] - 2108 A[12]
   - 5508 A[13] - 11628 A[14] >= -11628
 R5: - 196 A[0] + 92 A[1] + 140 A[2] + 28 A[3] - 84 A[4] - 84 A[5]
   + 28 A[6] + 140 A[7] + 92 A[8] - 196 A[9] - 532 A[10] - 196 A[11]
   + 2380 A[12] + 9996 A[13] + 27132 A[14] >= -27132
 R6: 156 A[0] + 260 A[1] + 28 A[2] - 140 A[3] - 84 A[4] + 84 A[5]
   + 140 A[6] - 28 A[7] - 260 A[8] - 156 A[9] + 572 A[10] + 1300 A[11]
   - 884 A[12] - 13260 A[13] - 50388 A[14] >= -50388
 R7: 494 A[0] + 78 A[1] - 210 A[2] - 98 A[3] + 126 A[4] + 126 A[5]
   - 98 A[6] - 210 A[7] + 78 A[8] + 494 A[9] + 78 A[10] - 1794 A[11]
   - 2210 A[12] + 11934 A[13] + 75582 A[14] >= -75582
 R8: 286 A[0] - 286 A[1] - 154 A[2] + 154 A[3] + 126 A[4] - 126 A[5]
   - 154 A[6] + 154 A[7] + 286 A[8] - 286 A[9] - 858 A[10] + 858 A[11]
   + 4862 A[12] - 4862 A[13] - 92378 A[14] >= -92378
 R9: - 286 A[0] - 286 A[1] + 154 A[2] + 154 A[3] - 126 A[4] - 126 A[5]
   + 154 A[6] + 154 A[7] - 286 A[8] - 286 A[9] + 858 A[10] + 858 A[11]
   - 4862 A[12] - 4862 A[13] + 92378 A[14] >= -92378
 R10: - 494 A[0] + 78 A[1] + 210 A[2] - 98 A[3] - 126 A[4] + 126 A[5]
   + 98 A[6] - 210 A[7] - 78 A[8] + 494 A[9] - 78 A[10] - 1794 A[11]
   + 2210 A[12] + 11934 A[13] - 75582 A[14] >= -75582
 R11: - 156 A[0] + 260 A[1] - 28 A[2] - 140 A[3] + 84 A[4] + 84 A[5]
   - 140 A[6] - 28 A[7] + 260 A[8] - 156 A[9] - 572 A[10] + 1300 A[11]
   + 884 A[12] - 13260 A[13] + 50388 A[14] >= -50388
 R12: 196 A[0] + 92 A[1] - 140 A[2] + 28 A[3] + 84 A[4] - 84 A[5] - 28 A[6]
   + 140 A[7] - 92 A[8] - 196 A[9] + 532 A[10] - 196 A[11] - 2380 A[12]
   + 9996 A[13] - 27132 A[14] >= -27132
 R13: 204 A[0] - 84 A[1] - 36 A[2] + 76 A[3] - 36 A[4] - 36 A[5] + 76 A[6]
   - 36 A[7] - 84 A[8] + 204 A[9] - 132 A[10] - 468 A[11] + 2108 A[12]
   - 5508 A[13] + 11628 A[14] >= -11628
 R14: 44 A[0] - 76 A[1] + 44 A[2] + 4 A[3] - 36 A[4] + 36 A[5] - 4 A[6]
   - 44 A[7] + 76 A[8] - 44 A[9] - 116 A[10] + 484 A[11] - 1156 A[12]
   + 2244 A[13] - 3876 A[14] >= -3876
 R15: - 39 A[0] - 7 A[1] + 25 A[2] - 23 A[3] + 9 A[4] + 9 A[5] - 23 A[6]
   + 25 A[7] - 7 A[8] - 39 A[9] + 121 A[10] - 247 A[11] + 425 A[12]
   - 663 A[13] + 969 A[14] >= -969
 R16: - 31 A[0] + 15 A[1] - 3 A[2] - 5 A[3] + 9 A[4] - 9 A[5] + 5 A[6]
   + 3 A[7] - 15 A[8] + 31 A[9] - 51 A[10] + 75 A[11] - 103 A[12]
   + 135 A[13] - 171 A[14] >= -171
 R17: - 9 A[0] + 7 A[1] - 5 A[2] + 3 A[3] - A[4] - A[5] + 3 A[6] - 5 A[7]
   + 7 A[8] - 9 A[9] + 11 A[10] - 13 A[11] + 15 A[12] - 17 A[13] + 19 A[14]
   >= -19
 R18: - A[0] + A[1] - A[2] + A[3] - A[4] + A[5] - A[6] + A[7] - A[8] + A[9]
   - A[10] + A[11] - A[12] + A[13] - A[14] >= -1
 R19: 11768 A[0] + 11712 A[1] + 11592 A[2] + 11552 A[3] + 11592 A[4]
   + 11664 A[5] + 11704 A[6] + 11664 A[7] + 11544 A[8] + 11424 A[9]
   + 11496 A[10] + 12096 A[11] + 13736 A[12] + 17136 A[13] + 23256 A[14]
   >= 0
 R20: 27328 A[0] + 26976 A[1] + 26992 A[2] + 27104 A[3] + 27216 A[4]
   + 27216 A[5] + 27104 A[6] + 26992 A[7] + 27040 A[8] + 27328 A[9]
   + 27664 A[10] + 27328 A[11] + 24752 A[12] + 17136 A[13] >= 0
 R21: 50232 A[0] + 50128 A[1] + 50296 A[2] + 50528 A[3] + 50472 A[4]
   + 50304 A[5] + 50248 A[6] + 50416 A[7] + 50648 A[8] + 50544 A[9]
   + 49816 A[10] + 49088 A[11] + 51272 A[12] + 63648 A[13] + 100776 A[14]
   >= 0
 R22: 75088 A[0] + 75504 A[1] + 75792 A[2] + 75616 A[3] + 75456 A[4]
   + 75456 A[5] + 75680 A[6] + 75792 A[7] + 75504 A[8] + 75088 A[9]
   + 75504 A[10] + 77376 A[11] + 77792 A[12] + 63648 A[13] >= 0
 R23: 92092 A[0] + 92664 A[1] + 92532 A[2] + 92224 A[3] + 92188 A[4]
   + 92504 A[5] + 92532 A[6] + 92224 A[7] + 92092 A[8] + 92664 A[9]
   + 93236 A[10] + 91520 A[11] + 87516 A[12] + 97240 A[13] + 184756 A[14]
   >= 0
 R24: 92664 A[0] + 92664 A[1] + 92224 A[2] + 92224 A[3] + 92504 A[4]
   + 92440 A[5] + 92224 A[6] + 92224 A[7] + 92664 A[8] + 92664 A[9]
   + 91520 A[10] + 91520 A[11] + 97240 A[12] + 97240 A[13] >= 0
 R25: 76076 A[0] + 75504 A[1] + 75372 A[2] + 75680 A[3] + 75708 A[4]
   + 75456 A[5] + 75420 A[6] + 75792 A[7] + 75660 A[8] + 75088 A[9]
   + 75660 A[10] + 77376 A[11] + 73372 A[12] + 63648 A[13] + 151164 A[14]
   >= 0
 R26: 50544 A[0] + 50128 A[1] + 50416 A[2] + 50528 A[3] + 50304 A[4]
   + 50304 A[5] + 50528 A[6] + 50352 A[7] + 50128 A[8] + 50544 A[9]
   + 50960 A[10] + 49088 A[11] + 49504 A[12] + 63648 A[13] >= 0
 R27: 26936 A[0] + 27040 A[1] + 27272 A[2] + 27104 A[3] + 27048 A[4]
   + 27216 A[5] + 27160 A[6] + 26992 A[7] + 27160 A[8] + 27328 A[9]
   + 26600 A[10] + 27328 A[11] + 29512 A[12] + 17136 A[13] + 54264 A[14]
   >= 0
 R28: 11424 A[0] + 11712 A[1] + 11664 A[2] + 11552 A[3] + 11664 A[4]
   + 11664 A[5] + 11552 A[6] + 11664 A[7] + 11712 A[8] + 11360 A[9]
   + 11760 A[10] + 12096 A[11] + 9520 A[12] + 17136 A[13] >= 0
 R29: 3832 A[0] + 3952 A[1] + 3832 A[2] + 3872 A[3] + 3912 A[4] + 3840 A[5]
   + 3880 A[6] + 3920 A[7] + 3800 A[8] + 3920 A[9] + 3928 A[10]
   + 3392 A[11] + 5032 A[12] + 1632 A[13] + 7752 A[14] >= 0
 R30: 1008 A[0] + 976 A[1] + 944 A[2] + 992 A[3] + 960 A[4] + 960 A[5]
   + 992 A[6] + 944 A[7] + 976 A[8] + 1008 A[9] + 848 A[10] + 1152 A[11]
   + 544 A[12] + 1632 A[13] >= 0
 R31: 202 A[0] + 156 A[1] + 174 A[2] + 176 A[3] + 162 A[4] + 180 A[5]
   + 166 A[6] + 168 A[7] + 186 A[8] + 140 A[9] + 222 A[10] + 96 A[11]
   + 210 A[12] + 36 A[13] + 342 A[14] >= 0
 R32: 28 A[0] + 12 A[1] + 24 A[2] + 16 A[3] + 20 A[4] + 20 A[5] + 16 A[6]
   + 24 A[7] + 12 A[8] + 28 A[9] + 8 A[10] + 32 A[11] + 4 A[12] - 28 A[13]
   >= 0
 R33: 2 A[0] + 2 A[2] + 2 A[4] + 2 A[6] + 2 A[8] + 2 A[10] + 2 A[12]
   - 62 A[14] >= 0
 R34: A[0] >= 1
 R35: A[0] + A[1] + A[2] + A[3] + A[4] + A[5] + A[6] + A[7] + A[8] + A[9]
   + A[10] + A[11] + A[12] + A[13] + A[14] >= 64
 R36: A[0] + A[1] + A[2] + A[3] + A[4] + A[5] + A[6] + A[7] + A[8] + A[9]
   + A[10] + A[11] + A[12] + A[13] + A[14] <= 2048
Bounds
 A[0] <= 11628
 A[1] <= 27132
 A[2] <= 50388
 A[3] <= 75582
 A[4] <= 92378
 A[5] <= 92378
 A[6] <= 75582
 A[7] <= 50388
 A[8] <= 27132
 A[9] <= 11628
 A[10] <= 3876
 A[11] <= 969
 A[12] <= 171
 A[13] <= 19
 A[14] <= 1
Generals
 A[0] A[1] A[2] A[3] A[4] A[5] A[6] A[7] A[8] A[9] A[10] A[11] A[12] A[13]
 A[14]
End
